18 9 10 11 16 15 14 13 12 23 22 24 25 26 27 28 29 30 32 31 36 37 38 35 33 34 558 559 550 551 101 102 98 99 100 552 553 554 557 556 555 46 45 44 41 40 39 42 43 47 48 49 50 84 51 52 54 53 55 56 83 82 57 58 59 81 80 79 61 60 63 62 78 88 87 86 85 90 92 91 93 89 94 97 95 96 103 104 105 106 118 119 120 121 122 123 71 72 73 74 75 77 76 64 65 66 67 68 70 69 124 125 126 127 128 117 116 115 114 112 113 131 130 129 132 133 134 135 136 137 138 139 140 141 151 150 149 152 148 147 142 143 144 146 145 158 157 153 154 155 156 159 160 161 162 168 163 167 166 164 165 201 200 199 198 202 204 203 208 207 206 205 209 210 211 212 213 214 215 216 217 223 224 222 221 220 218 219 193 194 195 196 197 184 185 183 182 179 181 180 169 171 170 175 174 173 172 111 110 109 108 107 542 541 543 544 547 546 545 548 549 560 561 562 563 564 565 566 567 21 20 19 568 569 570 474 473 472 471 470 469 468 467 466 571 460 459 461 462 463 464 465 496 497 498 519 518 495 494 524 525 493 492 491 490 526 523 522 521 520 517 516 515 514 513 512 527 528 529 530 531 532 533 489 488 534 487 486 485 482 475 476 477 478 479 480 481 483 484 535 536 537 539 538 540 176 177 178 187 188 186 227 189 190 192 191 226 225 228 229 230 231 233 232 234 235 236 511 510 509 506 507 508 302 301 241 242 240 237 238 239 243 244 245 246 247 248 249 250 251 252 254 253 255 256 257 300 258 259 260 261 262 263 264 266 265 299 298 297 267 271 272 269 268 270 296 295 294 293 291 292 273 274 275 290 289 288 276 277 278 279 282 281 280 287 286 285 284 283 334 335 336 337 338 339 333 332 331 330 340 341 343 344 345 346 364 363 362 347 348 349 350 351 415 416 414 413 352 353 354 355 357 358 359 361 360 401 403 402 356 412 411 417 419 418 410 383 384 409 408 407 406 405 404 400 399 398 397 385 386 387 388 389 390 392 391 393 394 396 371 372 370 369 368 365 367 366 342 329 328 327 326 325 324 323 322 373 374 395 375 376 315 314 316 317 321 320 319 318 305 306 304 303 307 313 312 311 310 309 308 505 504 503 502 501 500 499 452 453 440 441 450 451 377 378 379 380 381 447 448 449 446 442 443 444 445 431 382 425 424 422 420 421 423 426 427 428 429 430 432 433 434 435 436 437 438 439 454 455 456 457 458 1 2 3 4 0 5 573 572 6 7 8 17